         0 1.210e-10 8.898e-12 	
 0.0003509 8.955e-11 8.221e-12 	
 0.0013504 4.737e-11 7.044e-12 	
 0.0030021 2.914e-11 6.617e-12 	
 0.0053024 2.216e-11 6.556e-12 	
 0.0082473 1.758e-11 6.573e-12 	
  0.011837 1.373e-11 6.615e-12 	
 0.0160675 9.973e-12 6.665e-12 	
 0.0209388 7.884e-12 6.778e-12 	
 0.0264549 8.459e-12 6.722e-12 	
 0.0326042 7.551e-12 6.753e-12 	
 0.0393905 6.687e-12 6.778e-12 	
 0.0468139 2.207e-12 6.681e-12 	
 0.0548667 3.706e-12 6.767e-12 	
 0.0635528 1.996e-12 6.744e-12 	
 0.0728683 9.774e-13 6.734e-12 	
 0.0828094 2.380e-12 6.794e-12 	
 0.0933837 3.593e-12 6.839e-12 	
 0.1045761 -3.48e-13 6.731e-12 	
  0.116394 2.595e-12 6.798e-12 	
 0.1288375 -6.10e-13 6.713e-12 	
 0.1418952 3.194e-13 6.687e-12 	
 0.1555786 3.159e-13 6.657e-12 	
 0.1698722 4.442e-13 6.620e-12 	
 0.1847839 4.519e-13 6.574e-12 	
 0.2003135 4.836e-14 6.506e-12 	
 0.2164535 -1.44e-12 6.473e-12 	
 0.2332038 -4.01e-12 6.460e-12 	
 0.2505607 -6.64e-15 6.305e-12 	
 0.2685317 1.069e-12 6.165e-12 	
 0.2777404 -2.47e-13 4.758e-12 	
 0.2966194 -9.19e-13 4.651e-12 	
  0.316101 -2.73e-12 4.567e-12 	
 0.3361854 2.281e-12 4.482e-12 	
 0.3568687 2.624e-12 4.381e-12 	
 0.3781547 -1.04e-14 4.188e-12 	
 0.4000396 -1.45e-12 4.111e-12 	
 0.4225196 -3.06e-13 3.987e-12 	
 0.4455947 4.637e-13 3.899e-12 	
       0.5 -1.40e-12 2.742e-12 	
     0.625 2.358e-12 2.501e-12 	
      0.75 -9.94e-14 2.206e-12 	
     0.875 -5.26e-13 2.012e-12 	
         1 -1.34e-13 2.027e-12 	
     1.125 -2.74e-13 2.130e-12 	
      1.25 -1.77e-12 1.990e-12 	
     1.375 -1.37e-12 1.818e-12 	
       1.5 -1.38e-12 1.657e-12 	
     1.625 -5.44e-13 1.497e-12 	
      1.75 -7.31e-13 1.386e-12 	
     1.875 -1.08e-12 1.259e-12 	
         2 -8.45e-14 2.054e-12 	
     2.125 1.448e-12 3.821e-12 	
      2.25 -7.26e-13 3.558e-12 	
     2.375 6.621e-13 3.376e-12 	
       2.5 -1.40e-12 3.221e-12 	
     2.625 -7.81e-13 2.998e-12 	
      2.75 -3.42e-13 2.871e-12 	
     2.875 -1.45e-12 2.711e-12 	
         3 -2.22e-12 2.603e-12 	
     3.125 -6.10e-13 2.427e-12 	
      3.25 1.021e-14 2.308e-12 	
     3.375 -4.19e-13 2.167e-12 	
       3.5 5.031e-13 2.359e-12 	
     3.625 -1.29e-12 2.422e-12 	
      3.75 -1.66e-12 2.278e-12 	
     3.875 -4.89e-13 2.149e-12 	
         4 -5.73e-13 2.035e-12 	
     4.125 -2.41e-13 1.916e-12 	
      4.25 -1.21e-12 1.829e-12 	
     4.375 -1.80e-12 1.761e-12 	
       4.5 -1.57e-12 1.659e-12 	
     4.625 -9.43e-13 1.530e-12 	
      4.75 -1.22e-12 1.484e-12 	
     4.875 -1.61e-12 1.388e-12 	
         5 2.124e-13 1.466e-12 	
     5.125 -1.08e-12 6.358e-12 	
      5.25 -3.12e-12 6.047e-12 	
     5.375 -2.78e-12 5.866e-12 	
       5.5 -1.50e-12 5.603e-12 	
     5.625 -3.63e-12 5.419e-12 	
      5.75 7.925e-13 5.157e-12 	
     5.875 -4.06e-12 5.084e-12 	
         6 5.963e-13 4.756e-12 	
     6.125 -8.08e-13 4.637e-12 	
      6.25 -1.17e-12 4.393e-12 	
     6.375 6.645e-13 4.281e-12 	
       6.5 -6.31e-13 4.109e-12 	
     6.625 -1.20e-12 3.962e-12 	
      6.75 -2.62e-12 3.838e-12 	
     6.875 -1.68e-12 3.670e-12 	
         7 6.114e-13 3.513e-12 	
     7.125 -3.89e-13 3.426e-12 	
      7.25 -5.21e-13 3.996e-12 	
     7.375 4.234e-13 4.107e-12 	
       7.5 7.974e-13 3.895e-12 	
     7.625 2.671e-13 3.771e-12 	
      7.75 -2.10e-12 3.662e-12 	
     7.875 6.552e-13 3.491e-12 	
         8 -1.63e-12 3.367e-12 	
     8.125 -3.03e-13 3.203e-12 	
      8.25 -6.33e-13 3.077e-12 	
     8.375 -1.62e-12 2.972e-12 	
       8.5 -3.22e-12 2.882e-12 	
     8.625 -2.35e-13 2.694e-12 	
      8.75 7.101e-13 2.645e-12 	
     8.875 -9.15e-13 2.484e-12 	
         9 6.867e-13 2.422e-12 	
     9.125 -1.14e-12 2.274e-12 	
      9.25 -1.41e-12 2.451e-12 	
     9.375 -3.21e-12 8.885e-12 	
       9.5 2.460e-12 8.432e-12 	
     9.625 -2.39e-12 8.249e-12 	
      9.75 2.554e-12 8.016e-12 	
     9.875 6.688e-12 7.883e-12 	
        10 6.567e-13 7.416e-12 	
    10.125 -4.04e-14 7.144e-12 	
     10.25 5.667e-12 7.091e-12 	
    10.375 -1.80e-13 6.666e-12 	
      10.5 -1.88e-12 6.471e-12 	
    10.625 -1.75e-13 6.221e-12 	
     10.75 5.248e-12 6.328e-12 	
    10.875 3.051e-12 5.920e-12 	
        11 1.462e-12 5.667e-12 	
    11.125 2.181e-12 5.627e-12 	
     11.25 1.923e-12 5.318e-12 	
    11.375 -3.56e-13 5.201e-12 	
      11.5 1.178e-12 4.951e-12 	
    11.625 -1.49e-12 4.883e-12 	
     11.75 2.836e-12 4.680e-12 	
    11.875 -3.45e-13 4.538e-12 	
        12 1.500e-12 4.434e-12 	
    12.125 7.827e-13 5.117e-12 	
     12.25 3.162e-13 5.208e-12 	
    12.375 5.429e-13 5.044e-12 	
      12.5 1.291e-12 4.899e-12 	
    12.625 9.222e-13 4.724e-12 	
     12.75 -4.46e-13 4.546e-12 	
    12.875 6.417e-13 4.403e-12 	
        13 9.534e-13 4.261e-12 	
    13.125 -2.40e-12 4.135e-12 	
     13.25 2.554e-12 4.021e-12 	
    13.375 2.043e-12 3.866e-12 	
      13.5 4.835e-13 3.681e-12 	
    13.625 1.007e-12 3.653e-12 	
     13.75 1.884e-12 3.476e-12 	
    13.875 -1.00e-12 3.313e-12 	
        14 2.285e-13 3.175e-12 	
    14.125 9.691e-13 3.157e-12 	
     14.25 1.100e-12 2.974e-12 	
    14.375 1.398e-12 2.867e-12 	
      14.5 2.758e-12 2.869e-12 	
    14.625 8.912e-13 3.398e-12 	
     14.75 -1.13e-12 8.663e-12 	
    14.875 -3.46e-12 8.243e-12 	
        15 -2.17e-12 8.178e-12 	
    15.125 2.155e-12 7.778e-12 	
     15.25 2.656e-12 7.756e-12 	
    15.375 -4.88e-12 7.544e-12 	
      15.5 6.983e-12 7.294e-12 	
    15.625 5.835e-12 7.224e-12 	
     15.75 2.803e-13 6.837e-12 	
    15.875 9.794e-13 6.672e-12 	
        16 5.339e-12 6.463e-12 	
    16.125 4.162e-13 6.268e-12 	
     16.25 5.004e-12 6.248e-12 	
    16.375 -1.49e-13 5.914e-12 	
      16.5 -7.90e-15 5.749e-12 	
    16.625 -2.26e-12 5.627e-12 	
     16.75 3.955e-12 5.563e-12 	
    16.875 3.791e-12 5.398e-12 	
        17 2.427e-12 5.398e-12 	
    17.125 -8.84e-13 5.196e-12 	
     17.25 2.272e-12 5.232e-12 	
    17.375 4.068e-12 5.040e-12 	
      17.5 7.968e-13 4.802e-12 	
    17.625 1.049e-13 4.647e-12 	
     17.75 2.769e-12 4.602e-12 	
    17.875 -4.34e-13 4.399e-12 	
        18 1.259e-12 4.306e-12 	
    18.125 2.802e-12 4.234e-12 	
     18.25 4.936e-12 4.289e-12 	
    18.375 -2.86e-13 3.937e-12 	
      18.5 2.677e-12 3.902e-12 	
    18.625 4.391e-12 3.847e-12 	
     18.75 8.327e-13 3.724e-12 	
    18.875 2.512e-12 3.590e-12 	
        19 6.263e-12 3.602e-12 	
    19.125 7.401e-12 3.626e-12 	
     19.25 3.857e-12 3.342e-12 	
    19.375 1.995e-12 3.273e-12 	
      19.5 4.061e-12 3.171e-12 	
    19.625 3.937e-12 3.074e-12 	
     19.75 8.966e-13 2.969e-12 	
    19.875 1.748e-12 2.839e-12 	
        20 2.559e-12 2.852e-12 	
    20.125 9.476e-13 2.653e-12 	
     20.25 2.999e-12 2.703e-12 	
    20.375 5.176e-12 2.624e-12 	
      20.5 3.405e-12 2.559e-12 	
    20.625 4.154e-12 2.510e-12 	
     20.75 3.722e-12 2.360e-12 	
 21.006832 2.998e-12 3.805e-12 	
  21.02383 -1.90e-12 3.708e-12 	
 21.040836 4.631e-12 6.482e-12 	
 21.057846 3.344e-12 6.407e-12 	
 21.074863 6.385e-12 6.517e-12 	
 21.091884 3.779e-12 6.383e-12 	
 21.108913 -1.38e-12 6.209e-12 	
 21.125946 2.883e-12 6.307e-12 	
 21.142986 -3.87e-12 6.191e-12 	
  21.16003 3.157e-12 6.283e-12 	
 21.177078 2.350e-12 6.232e-12 	
 21.194133 4.481e-12 6.311e-12 	
 21.211196 -7.29e-13 6.096e-12 	
 21.228263 3.315e-12 6.217e-12 	
 21.245334 6.632e-12 6.344e-12 	
 21.262416 9.210e-12 6.437e-12 	
 21.279499 6.826e-12 6.316e-12 	
 21.296588 3.766e-12 6.164e-12 	
 21.313682 5.090e-12 6.202e-12 	
 21.330783 4.284e-12 6.151e-12 	
 21.347888 4.929e-12 6.159e-12 	
 21.365005 1.601e-12 5.997e-12 	
 21.382118 8.581e-12 6.284e-12 	
 21.399242 3.779e-12 6.057e-12 	
 21.416374 5.890e-13 5.903e-12 	
 21.433506 6.009e-12 6.120e-12 	
 21.450649 7.543e-12 6.168e-12 	
 21.467792 3.111e-13 5.839e-12 	
 21.484943 2.807e-12 5.929e-12 	
 21.502101 -1.62e-12 5.805e-12 	
 21.519264 -3.66e-13 5.777e-12 	
 21.536434 6.769e-12 6.049e-12 	
 21.553607 4.558e-12 5.935e-12 	
 21.570785 7.762e-12 6.055e-12 	
  21.58797 4.282e-12 5.891e-12 	
 21.605163 7.591e-12 6.016e-12 	
  21.62236 6.664e-12 5.959e-12 	
  21.63956 5.879e-12 5.909e-12 	
 21.656768 -1.79e-12 5.657e-12 	
 21.673984 5.753e-12 5.876e-12 	
   21.6912 7.554e-12 5.929e-12 	
 21.708423 3.459e-12 5.738e-12 	
 21.725654 1.021e-11 6.013e-12 	
 21.742889 2.165e-12 5.650e-12 	
 21.760131 1.255e-11 6.074e-12 	
 21.777381 1.404e-11 6.120e-12 	
 21.794632 1.506e-11 6.146e-12 	
 21.811889 1.330e-11 6.055e-12 	
 21.829155 1.959e-11 6.301e-12 	
 21.846424 2.013e-11 6.307e-12 	
 21.863697 2.084e-11 6.319e-12 	
 21.880977 1.795e-11 6.190e-12 	
 21.898265 2.061e-11 6.277e-12 	
 21.915557 2.564e-11 6.470e-12 	
 21.932853 1.945e-11 6.201e-12 	
 21.950157 2.046e-11 6.221e-12 	
 21.967464 1.472e-11 5.967e-12 	
 21.984779 1.871e-11 6.115e-12 	
 22.002098 1.567e-11 5.983e-12 	
 22.019424 1.200e-11 5.831e-12 	
 22.036754 1.101e-11 5.749e-12 	
 22.054092 1.406e-11 5.858e-12 	
 22.071434 4.264e-12 5.433e-12 	
 22.088779 1.175e-11 5.732e-12 	
 22.106132 3.237e-12 5.363e-12 	
 22.123493 5.400e-13 5.232e-12 	
 22.140857 3.032e-13 5.206e-12 	
 22.158226 3.572e-12 5.331e-12 	
 22.175602 2.166e-12 5.260e-12 	
 22.192981 4.978e-12 5.356e-12 	
 22.210369 6.623e-12 5.410e-12 	
  22.22776 5.664e-12 5.355e-12 	
 22.245159 4.251e-12 5.282e-12 	
 22.262561 3.154e-13 5.101e-12 	
 22.279972 1.170e-11 5.560e-12 	
 22.297386 5.837e-12 5.302e-12 	
 22.314804 2.631e-12 5.153e-12 	
 22.332233 3.569e-12 5.179e-12 	
 22.349662 5.350e-12 5.243e-12 	
 22.367099 5.739e-12 5.238e-12 	
  22.38454 5.346e-12 5.207e-12 	
 22.401989 4.415e-12 5.153e-12 	
 22.419441 4.349e-12 5.140e-12 	
 22.436901 5.306e-12 5.159e-12 	
 22.454364 6.765e-12 5.206e-12 	
 22.471836 9.803e-12 5.317e-12 	
 22.489311 3.101e-12 5.026e-12 	
 22.506794 1.375e-11 5.447e-12 	
  22.52428 8.219e-12 5.208e-12 	
  22.54177 4.287e-12 5.031e-12 	
 22.559269 8.389e-12 5.184e-12 	
 22.576774 8.848e-12 5.186e-12 	
  22.59428 8.564e-12 5.164e-12 	
 22.611793 9.440e-12 5.186e-12 	
 22.629314 6.552e-12 5.060e-12 	
 22.646843 7.421e-12 5.075e-12 	
 22.664371 9.880e-12 5.160e-12 	
 22.681911 8.569e-12 5.091e-12 	
 22.699451 1.065e-11 5.163e-12 	
 22.716999 8.458e-12 5.059e-12 	
  22.73455 7.863e-12 5.021e-12 	
 22.752109 7.633e-12 4.994e-12 	
 22.769676 8.131e-12 5.004e-12 	
 22.787246 1.879e-12 4.735e-12 	
 22.804821 5.348e-13 4.666e-12 	
 22.822403 2.081e-12 4.716e-12 	
 22.839988 5.809e-12 4.854e-12 	
 22.857578 8.438e-12 4.947e-12 	
 22.875175 4.328e-12 4.766e-12 	
  22.89278 9.814e-12 4.973e-12 	
 22.910388 6.005e-12 4.807e-12 	
 22.928001 8.811e-12 4.907e-12 	
 22.945621 7.279e-12 4.831e-12 	
 22.963249 9.960e-12 4.926e-12 	
 22.980876 1.270e-11 5.022e-12 	
 22.998512 1.337e-11 5.035e-12 	
 23.016155 1.245e-11 4.985e-12 	
 23.033802 2.496e-11 5.467e-12 	
 23.051456 2.553e-11 5.475e-12 	
  23.06911 2.696e-11 5.516e-12 	
 23.086776 2.060e-11 5.254e-12 	
 23.104446 2.979e-11 6.113e-12 	
 23.122119 2.873e-11 6.057e-12 	
 23.139801 3.271e-11 6.194e-12 	
 23.157486 3.574e-11 6.292e-12 	
 23.175178 3.486e-11 6.241e-12 	
 23.192874 3.479e-11 6.221e-12 	
 23.210578 2.757e-11 5.935e-12 	
 23.228282 2.364e-11 5.769e-12 	
 23.245998 1.938e-11 5.589e-12 	
 23.263717 2.443e-11 5.768e-12 	
  23.28144 1.308e-11 5.322e-12 	
 23.299171 1.212e-11 5.265e-12 	
 23.316906 1.131e-11 5.225e-12 	
 23.334648 1.088e-11 5.188e-12 	
 23.352394 1.474e-11 5.324e-12 	
 23.370143 9.959e-12 5.123e-12 	
 23.387901 8.906e-12 5.068e-12 	
 23.405666 1.245e-11 5.190e-12 	
 23.423435 1.122e-11 5.127e-12 	
 23.441207 8.019e-12 4.988e-12 	
 23.458988 1.340e-11 5.184e-12 	
 23.476772 8.049e-12 4.960e-12 	
  23.49456 4.530e-12 4.810e-12 	
 23.512355 1.082e-11 5.040e-12 	
 23.530159 6.085e-12 4.844e-12 	
 23.547966 1.312e-11 5.099e-12 	
 23.565776 6.164e-12 4.819e-12 	
 23.583595 1.469e-11 5.132e-12 	
 23.601417 9.491e-12 4.916e-12 	
 23.619247 8.070e-12 4.847e-12 	
 23.637081 8.742e-12 4.862e-12 	
 23.654918 1.606e-11 5.126e-12 	
 23.672763 1.277e-11 4.983e-12 	
 23.690616 1.708e-11 5.133e-12 	
 23.708473 2.744e-11 5.507e-12 	
 23.726333 2.380e-11 5.358e-12 	
 23.744201 3.427e-11 5.733e-12 	
 23.762073 2.692e-11 5.449e-12 	
 23.779949 3.517e-11 5.737e-12 	
 23.797832 3.759e-11 5.811e-12 	
 23.815723 3.021e-11 5.525e-12 	
 23.833618 3.470e-11 5.675e-12 	
 23.851516 3.425e-11 5.645e-12 	
 23.869422 3.373e-11 5.615e-12 	
 23.887332 3.016e-11 5.466e-12 	
 23.905246 2.916e-11 5.413e-12 	
 23.923172 2.251e-11 5.155e-12 	
 23.941097 1.710e-11 4.939e-12 	
  23.95903 1.872e-11 4.987e-12 	
 23.976966 1.862e-11 4.973e-12 	
 23.994911 1.239e-11 4.720e-12 	
 24.012859 1.544e-11 4.825e-12 	
 24.030815 1.762e-11 4.892e-12 	
 24.048774 1.743e-11 4.872e-12 	
 24.066738 1.551e-11 4.786e-12 	
 24.084709 1.935e-11 4.914e-12 	
 24.102687 2.300e-11 5.037e-12 	
 24.120666 2.877e-11 5.236e-12 	
 24.138652 3.146e-11 5.320e-12 	
 24.156646 3.235e-11 5.340e-12 	
 24.174644 3.593e-11 5.457e-12 	
 24.192649 3.967e-11 5.578e-12 	
 24.210659 4.070e-11 5.607e-12 	
 24.228672 3.763e-11 5.478e-12 	
 24.246692 3.733e-11 5.453e-12 	
 24.264717 4.302e-11 5.645e-12 	
 24.282749 3.569e-11 5.365e-12 	
 24.300781 3.647e-11 5.378e-12 	
 24.318824 3.325e-11 5.251e-12 	
 24.336872 3.597e-11 5.336e-12 	
 24.354923 3.405e-11 5.254e-12 	
 24.372982 3.102e-11 5.130e-12 	
 24.391044 3.348e-11 5.209e-12 	
 24.409111 3.681e-11 5.314e-12 	
 24.427185 4.212e-11 5.491e-12 	
 24.445266 4.597e-11 5.618e-12 	
 24.463352 4.534e-11 5.580e-12 	
 24.481441 4.280e-11 5.475e-12 	
 24.499538 4.807e-11 5.651e-12 	
 24.517639 4.623e-11 5.571e-12 	
 24.535743 4.936e-11 5.670e-12 	
 24.553855 4.762e-11 5.595e-12 	
 24.571975 4.944e-11 5.646e-12 	
 24.590095 5.037e-11 5.667e-12 	
 24.608223 5.017e-11 5.649e-12 	
 24.626358 5.513e-11 5.808e-12 	
 24.644496 5.683e-11 5.856e-12 	
 24.662643 5.984e-11 5.950e-12 	
 24.680789 5.936e-11 5.919e-12 	
 24.698947 6.175e-11 5.987e-12 	
 24.717109 5.575e-11 5.762e-12 	
 24.735275 5.767e-11 5.818e-12 	
 24.753444 6.244e-11 5.972e-12 	
 24.771621 6.642e-11 6.098e-12 	
 24.789806 6.663e-11 6.092e-12 	
 24.807994 6.296e-11 5.952e-12 	
 24.826183 6.718e-11 6.086e-12 	
 24.844383 6.744e-11 6.081e-12 	
 24.862587 7.016e-11 6.162e-12 	
 24.880798 6.477e-11 5.963e-12 	
 24.899013 6.596e-11 5.989e-12 	
 24.917232 6.460e-11 5.933e-12 	
 24.935459 6.567e-11 5.958e-12 	
 24.953689 5.578e-11 5.600e-12 	
 24.971923 6.161e-11 5.789e-12 	
 24.990165 6.203e-11 5.791e-12 	
 25.008415 6.370e-11 5.837e-12 	
 25.026668 6.493e-11 5.868e-12 	
 25.044925 6.443e-11 5.839e-12 	
 25.063186 6.175e-11 5.731e-12 	
 25.081455 5.901e-11 5.623e-12 	
 25.099731 6.095e-11 5.682e-12 	
 25.118011 5.466e-11 5.448e-12 	
 25.136295 4.718e-11 5.178e-12 	
 25.154586 4.569e-11 5.111e-12 	
 25.172878 4.255e-11 4.990e-12 	
 25.191181 4.292e-11 4.991e-12 	
 25.209487 3.630e-11 4.747e-12 	
 25.227798 2.919e-11 4.484e-12 	
 25.246116 2.468e-11 4.312e-12 	
 25.264438 1.992e-11 4.134e-12 	
 25.282768 1.854e-11 4.070e-12 	
 25.301101 1.505e-11 3.935e-12 	
 25.319438 7.911e-12 3.665e-12 	
 25.337783 1.085e-11 3.760e-12 	
 25.356132 6.421e-12 3.588e-12 	
 25.374485 9.289e-12 3.683e-12 	
 25.392849 5.916e-12 3.548e-12 	
 25.411212 1.040e-12 3.361e-12 	
 25.429584 4.908e-12 3.492e-12 	
 25.447959 2.457e-12 3.396e-12 	
 25.466342 3.710e-12 3.424e-12 	
 25.484729 -4.38e-13 3.286e-12 	
  25.50312 9.105e-13 3.302e-12 	
 25.521518 2.703e-12 3.357e-12 	
  25.53992 -2.11e-13 3.250e-12 	
  25.55833 3.476e-13 3.249e-12 	
 25.576744 4.318e-12 3.383e-12 	
 25.595161 1.614e-12 3.276e-12 	
 25.613586 4.628e-12 3.378e-12 	
 25.632019 1.218e-12 3.243e-12 	
 25.650451 7.931e-13 3.216e-12 	
 25.668891 1.367e-12 3.223e-12 	
 25.687336 5.150e-12 3.350e-12 	
 25.705787 4.426e-12 3.313e-12 	
 25.724247 1.863e-12 3.212e-12 	
 25.742706 -2.85e-12 3.177e-12 	
 25.761173 6.043e-12 3.340e-12 	
 25.779647 3.308e-12 3.232e-12 	
 25.798126 3.172e-12 3.217e-12 	
 25.816608 -1.50e-12 3.115e-12 	
 25.835098 2.983e-12 3.190e-12 	
 25.853591 -1.14e-13 3.073e-12 	
 25.872089 4.942e-12 3.240e-12 	
 25.890594 3.088e-12 3.162e-12 	
 25.909103 2.882e-12 3.145e-12 	
 25.927619 4.392e-13 3.046e-12 	
  25.94614 2.396e-12 3.108e-12 	
        26 2.918e-12 2.242e-12 	
     26.05 2.422e-12 2.203e-12 	
      26.1 4.367e-14 2.360e-12 	
     26.15 4.452e-13 2.101e-12 	
      26.2 1.135e-12 2.101e-12 	
     26.25 2.939e-12 2.134e-12 	
      26.3 2.588e-12 2.352e-12 	
     26.35 3.732e-12 2.120e-12 	
      26.4 1.592e-12 2.031e-12 	
     26.45 1.990e-12 2.267e-12 	
      26.5 2.442e-12 2.021e-12 	
     26.55 1.603e-12 1.971e-12 	
      26.6 3.897e-12 2.265e-12 	
     26.65 4.002e-13 1.899e-12 	
      26.7 1.930e-12 1.924e-12 	
     26.75 9.217e-13 2.107e-12 	
      26.8 2.603e-12 1.908e-12 	
     26.85 2.086e-12 1.870e-12 	
      26.9 3.928e-12 2.142e-12 	
     26.95 -3.85e-12 7.637e-12 	
        27 6.053e-12 7.763e-12 	
     27.05 6.055e-12 8.576e-12 	
      27.1 4.671e-12 7.586e-12 	
     27.15 5.749e-12 7.559e-12 	
      27.2 7.180e-12 8.420e-12 	
     27.25 -6.52e-12 7.286e-12 	
      27.3 -1.09e-12 7.982e-12 	
     27.35 3.722e-12 7.245e-12 	
      27.4 3.794e-12 7.187e-12 	
     27.45 7.747e-12 8.113e-12 	
      27.5 -1.30e-12 6.936e-12 	
     27.55 1.085e-11 7.292e-12 	
      27.6 -1.44e-12 7.595e-12 	
     27.65 1.473e-12 6.805e-12 	
      27.7 -1.76e-13 6.684e-12 	
     27.75 -4.96e-12 7.437e-12 	
      27.8 2.590e-12 6.682e-12 	
     27.85 2.353e-13 7.288e-12 	
      27.9 3.074e-12 6.595e-12 	
     27.95 2.323e-12 6.504e-12 	
        28 8.684e-12 7.471e-12 	
     28.05 2.336e-12 6.412e-12 	
      28.1 1.101e-12 6.299e-12 	
     28.15 2.487e-12 7.025e-12 	
      28.2 4.103e-12 6.317e-12 	
     28.25 1.093e-11 7.288e-12 	
      28.3 5.793e-12 6.290e-12 	
     28.35 2.894e-12 6.114e-12 	
      28.4 3.236e-12 6.790e-12 	
     28.45 6.120e-12 6.145e-12 	
      28.5 4.874e-12 6.741e-12 	
     28.55 5.638e-12 6.034e-12 	
      28.6 9.184e-13 5.793e-12 	
     28.65 2.943e-12 6.502e-12 	
      28.7 9.671e-13 5.703e-12 	
     28.75 2.919e-12 6.398e-12 	
      28.8 6.498e-12 5.829e-12 	
     28.85 6.826e-12 6.462e-12 	
      28.9 4.838e-12 5.677e-12 	
     28.95 1.482e-12 5.495e-12 	
        29 3.925e-12 6.188e-12 	
     29.05 -1.72e-12 5.373e-12 	
      29.1 3.463e-12 6.079e-12 	
     29.15 1.091e-12 5.306e-12 	
      29.2 3.346e-12 5.353e-12 	
     29.25 4.668e-12 5.975e-12 	
      29.3 6.276e-12 5.372e-12 	
     29.35 -1.07e-12 5.706e-12 	
      29.4 1.245e-12 5.097e-12 	
     29.45 4.042e-12 5.770e-12 	
      29.5 3.930e-12 5.119e-12 	
     29.55 4.860e-12 5.109e-12 	
      29.6 -1.83e-12 5.482e-12 	
     29.65 2.142e-12 4.925e-12 	
      29.7 -5.75e-12 5.443e-12 	
     29.75 3.635e-12 4.904e-12 	
      29.8 2.011e-12 5.372e-12 	
     29.85 5.782e-12 4.904e-12 	
      29.9 4.994e-12 5.411e-12 	
     29.95 3.750e-12 4.754e-12 	
        30 5.140e-12 5.330e-12 	
     30.05 -1.45e-13 4.540e-12 	
      30.1 2.400e-12 4.583e-12 	
     30.15 -2.90e-13 4.998e-12 	
      30.2 -5.40e-13 4.432e-12 	
     30.25 2.367e-12 5.007e-12 	
      30.3 1.059e-12 4.388e-12 	
     30.35 5.913e-12 5.069e-12 	
      30.4 1.994e-12 4.351e-12 	
     30.45 -3.68e-12 4.812e-12 	
      30.5 2.041e-12 4.283e-12 	
     30.55 3.245e-12 4.811e-12 	
      30.6 1.830e-12 5.058e-12 	
     30.65 3.700e-12 5.575e-12 	
      30.7 2.887e-12 5.013e-12 	
     30.75 6.405e-12 5.582e-12 	
      30.8 3.779e-12 4.962e-12 	
     30.85 2.724e-12 4.873e-12 	
      30.9 5.360e-12 5.403e-12 	
     30.95 1.508e-12 4.750e-12 	
        31 3.250e-12 5.236e-12 	
     31.05 4.099e-12 4.761e-12 	
      31.1 3.343e-12 5.152e-12 	
     31.15 4.899e-12 4.712e-12 	
      31.2 2.329e-12 5.033e-12 	
     31.25 -8.54e-13 4.474e-12 	
      31.3 1.574e-12 4.924e-12 	
     31.35 3.385e-12 4.502e-12 	
      31.4 -9.97e-13 4.798e-12 	
     31.45 3.358e-13 4.321e-12 	
      31.5 1.900e-12 4.768e-12 	
     31.55 4.226e-12 4.382e-12 	
      31.6 2.014e-12 4.692e-12 	
     31.65 2.000e-12 4.229e-12 	
      31.7 7.760e-12 4.821e-12 	
     31.75 5.966e-12 4.295e-12 	
      31.8 2.170e-12 4.545e-12 	
     31.85 2.143e-12 4.091e-12 	
      31.9 3.609e-12 4.516e-12 	
     31.95 4.621e-13 3.962e-12 	
        32 1.687e-12 4.374e-12 	
     32.05 5.101e-12 4.467e-12 	
      32.1 3.486e-12 3.968e-12 	
     32.15 -5.28e-13 4.217e-12 	
      32.2 7.206e-12 4.027e-12 	
     32.25 4.998e-12 4.317e-12 	
      32.3 4.017e-12 3.851e-12 	
     32.35 1.763e-12 4.126e-12 	
      32.4 1.491e-12 3.700e-12 	
     32.45 3.145e-12 4.108e-12 	
      32.5 9.902e-13 3.619e-12 	
     32.55 5.685e-12 4.128e-12 	
      32.6 4.249e-12 3.663e-12 	
     32.65 1.690e-12 3.913e-12 	
      32.7 9.486e-13 3.488e-12 	
     32.75 2.617e-12 3.881e-12 	
      32.8 4.422e-12 3.914e-12 	
     32.85 3.058e-12 3.472e-12 	
      32.9 5.892e-12 3.898e-12 	
     32.95 5.205e-12 3.480e-12 	
        33 4.537e-12 3.783e-12 	
     33.05 2.470e-12 3.328e-12 	
      33.1 4.714e-12 3.725e-12 	
     33.15 3.185e-12 3.291e-12 	
      33.2 -1.83e-12 3.526e-12 	
     33.25 1.706e-12 3.184e-12 	
      33.3 7.227e-13 3.457e-12 	
     33.35 4.559e-12 3.566e-12 	
      33.4 1.771e-12 3.105e-12 	
     33.45 6.290e-13 3.367e-12 	
      33.5 2.386e-12 3.067e-12 	
     33.55 4.249e-12 3.429e-12 	
      33.6 3.244e-12 3.036e-12 	
     33.65 2.526e-12 3.310e-12 	
      33.7 7.487e-12 3.456e-12 	
     33.75 1.338e-12 2.894e-12 	
      33.8 1.020e-12 3.173e-12 	
     33.85 5.103e-12 2.962e-12 	
      33.9 -1.48e-13 3.081e-12 	
     33.95 4.800e-12 2.896e-12 	
        34 6.162e-12 3.229e-12 	
     34.05 5.252e-12 3.175e-12 	
      34.1 1.672e-12 2.720e-12 	
     34.15 4.250e-12 3.083e-12 	
      34.2 5.507e-12 2.790e-12 	
     34.25 1.114e-11 8.670e-12 	
      34.3 1.630e-12 7.403e-12 	
     34.35 -7.54e-13 8.068e-12 	
      34.4 3.185e-12 8.144e-12 	
     34.45 -2.28e-12 7.204e-12 	
      34.5 6.979e-12 8.177e-12 	
     34.55 -1.63e-12 7.071e-12 	
      34.6 -5.07e-12 7.796e-12 	
     34.65 3.838e-12 7.860e-12 	
      34.7 -2.52e-12 6.926e-12 	
     34.75 3.343e-13 7.589e-12 	
      34.8 2.804e-12 6.898e-12 	
     34.85 -8.20e-13 7.477e-12 	
      34.9 -2.82e-13 7.429e-12 	
     34.95 8.218e-12 6.959e-12 	
        35 7.060e-12 7.593e-12 	
     35.05 5.614e-12 6.749e-12 	
      35.1 3.053e-12 7.308e-12 	
     35.15 5.849e-13 7.161e-12 	
      35.2 6.386e-12 6.633e-12 	
     35.25 8.624e-12 7.386e-12 	
      35.3 5.355e-12 6.499e-12 	
     35.35 3.918e-12 7.087e-12 	
      35.4 3.196e-12 7.004e-12 	
     35.45 1.262e-12 6.198e-12 	
      35.5 4.577e-12 6.954e-12 	
     35.55 6.997e-12 7.015e-12 	
      35.6 8.810e-12 6.353e-12 	
     35.65 4.220e-12 6.788e-12 	
      35.7 2.612e-12 6.018e-12 	
     35.75 6.610e-13 6.538e-12 	
      35.8 8.019e-12 6.797e-12 	
     35.85 4.836e-12 5.974e-12 	
      35.9 6.140e-12 6.622e-12 	
     35.95 5.064e-12 6.556e-12 	
        36 5.686e-12 5.878e-12 	
     36.05 1.730e-12 6.313e-12 	
      36.1 6.905e-12 5.832e-12 	
     36.15 8.803e-12 6.489e-12 	
      36.2 5.965e-12 6.339e-12 	
     36.25 7.135e-12 5.722e-12 	
      36.3 1.204e-11 6.483e-12 	
     36.35 9.739e-12 6.352e-12 	
      36.4 7.355e-12 5.606e-12 	
     36.45 9.887e-12 6.267e-12 	
      36.5 9.668e-12 6.218e-12 	
     36.55 7.805e-12 5.500e-12 	
      36.6 5.811e-12 5.976e-12 	
     36.65 7.536e-12 5.406e-12 	
      36.7 8.329e-12 5.980e-12 	
     36.75 2.401e-12 5.709e-12 	
      36.8 2.621e-12 5.113e-12 	
     36.85 6.965e-12 5.805e-12 	
      36.9 5.876e-12 5.724e-12 	
     36.95 8.168e-12 5.202e-12 	
        37 1.261e-11 5.899e-12 	
     37.05 1.192e-11 5.836e-12 	
      37.1 1.016e-11 5.167e-12 	
     37.15 1.120e-11 5.724e-12 	
      37.2 1.156e-11 5.703e-12 	
     37.25 1.031e-11 5.060e-12 	
      37.3 1.290e-11 5.674e-12 	
     37.35 8.179e-12 5.455e-12 	
      37.4 1.060e-11 4.964e-12 	
     37.45 9.977e-12 5.440e-12 	
      37.5 8.616e-12 5.362e-12 	
     37.55 4.802e-12 4.653e-12 	
      37.6 8.215e-12 5.260e-12 	
     37.65 4.571e-12 5.088e-12 	
      37.7 9.392e-12 4.715e-12 	
     37.75 7.311e-12 5.114e-12 	
      37.8 9.729e-12 5.174e-12 	
     37.85 1.134e-11 4.684e-12 	
      37.9 9.383e-12 5.083e-12 	
     37.95 7.637e-12 4.987e-12 	
        38 1.349e-11 4.665e-12 	
     38.05 1.062e-11 5.023e-12 	
      38.1 1.394e-11 5.118e-12 	
     38.15 1.202e-11 4.514e-12 	
      38.2 9.252e-12 4.867e-12 	
     38.25 9.386e-12 4.842e-12 	
      38.3 1.149e-11 4.398e-12 	
     38.35 1.722e-11 5.064e-12 	
      38.4 1.322e-11 4.886e-12 	
     38.45 9.985e-12 4.734e-12 	
      38.5 8.250e-12 4.165e-12 	
     38.55 5.157e-12 4.479e-12 	
      38.6 1.283e-11 4.739e-12 	
     38.65 1.305e-11 4.243e-12 	
      38.7 8.502e-12 4.507e-12 	
     38.75 1.549e-11 4.738e-12 	
      38.8 1.352e-11 4.170e-12 	
     38.85 1.136e-11 4.518e-12 	
      38.9 1.623e-11 4.671e-12 	
     38.95 1.827e-11 4.714e-12 	
        39 1.787e-11 4.208e-12 	
     39.05 1.365e-11 4.477e-12 	
      39.1 1.194e-11 4.387e-12 	
     39.15 1.679e-11 4.083e-12 	
      39.2 1.448e-11 4.414e-12 	
     39.25 1.333e-11 4.344e-12 	
      39.3 7.267e-12 3.671e-12 	
     39.35 9.361e-12 4.135e-12 	
      39.4 8.435e-12 4.078e-12 	
     39.45 6.224e-12 3.967e-12 	
      39.5 8.472e-12 3.604e-12 	
     39.55 2.912e-12 3.784e-12 	
      39.6 2.924e-12 3.760e-12 	
     39.65 4.804e-12 3.399e-12 	
      39.7 7.014e-12 3.846e-12 	
     39.75 5.870e-12 3.780e-12 	
      39.8 7.708e-12 3.823e-12 	
     39.85 6.537e-12 3.356e-12 	
      39.9 6.100e-12 3.706e-12 	
     39.95 7.154e-12 3.716e-12 	
        40 5.874e-12 3.647e-12 	
     40.05 6.646e-12 3.263e-12 	
      40.1 5.724e-12 3.583e-12 	
     40.15 3.423e-12 3.475e-12 	
      40.2 7.620e-12 3.219e-12 	
     40.25 5.784e-12 3.503e-12 	
      40.3 1.225e-11 3.708e-12 	
     40.35 6.075e-12 3.465e-12 	
      40.4 5.813e-12 3.060e-12 	
     40.45 3.675e-12 3.325e-12 	
      40.5 4.600e-12 3.340e-12 	
     40.55 4.555e-12 3.310e-12 	
      40.6 5.048e-12 2.940e-12 	
     40.65 2.390e-12 3.174e-12 	
      40.7 4.820e-12 3.239e-12 	
     40.75 6.080e-12 3.260e-12 	
      40.8 7.093e-12 2.916e-12 	
     40.85 2.292e-12 3.072e-12 	
      40.9 6.383e-12 3.198e-12 	
     40.95 5.422e-12 3.139e-12 	
        41 5.612e-12 2.778e-12 	
     41.05 8.615e-12 3.197e-12 	
      41.1 7.319e-12 3.132e-12 	
     41.15 5.763e-12 3.057e-12 	
      41.2 8.160e-12 2.772e-12 	
     41.25 7.876e-12 3.076e-12 	
      41.3 1.149e-11 3.180e-12 	
     41.35 7.754e-12 3.029e-12 	
      41.4 8.962e-12 2.712e-12 	
     41.45 7.017e-12 2.953e-12 	
      41.5 6.268e-12 2.905e-12 	
     41.55 6.327e-12 2.890e-12 	
      41.6 6.630e-12 2.551e-12 	
     41.65 3.272e-12 2.734e-12 	
      41.7 1.012e-12 2.632e-12 	
     41.75 5.905e-12 2.781e-12 	
      41.8 3.470e-12 2.363e-12 	
     41.85 6.894e-12 2.770e-12 	
      41.9 4.280e-12 2.656e-12 	
     41.95 6.908e-12 2.726e-12 	
        42 7.390e-12 2.410e-12 	
     42.05 8.881e-12 2.747e-12 	
      42.1 1.046e-11 2.780e-12 	
     42.15 8.106e-12 2.679e-12 	
      42.2 8.154e-12 2.354e-12 	
     42.25 7.799e-12 2.621e-12 	
      42.3 7.366e-12 2.586e-12 	
     42.35 8.003e-12 2.590e-12 	
      42.4 1.097e-11 2.671e-12 	
     42.45 6.318e-12 2.198e-12 	
      42.5 9.649e-12 2.579e-12 	
     42.55 9.545e-12 2.557e-12 	
      42.6 1.037e-11 2.566e-12 	
     42.65 8.624e-12 2.196e-12 	
      42.7 9.058e-12 2.476e-12 	
     42.75 1.301e-11 2.589e-12 	
      42.8 1.223e-11 2.546e-12